WARNING: for repeatability, setting FPU to use double precision
============================[ Problem Statistics ]=============================
|                                                                             |
|  Number of variables:            50                                         |
|  Number of clauses:             218                                         |
|  Parse time:                   0.00 s                                       |
|                                                                             |
============================[ Search Statistics ]==============================
| Conflicts |          ORIGINAL         |          LEARNT          | Progress |
|           |    Vars  Clauses Literals |    Limit  Clauses Lit/Cl |          |
===============================================================================
===============================================================================
restarts              : 1
conflicts             : 21             (15184 /sec)
decisions             : 31             (0.00 % random) (22415 /sec)
propagations          : 304            (219812 /sec)
conflict literals     : 82             (13.68 % deleted)
Memory used           : 20.00 MB
CPU time              : 0.001383 s

SATISFIABLE
